networks/zoo_104_2652/zoo_104_2652-lower.txt
Number of groups: 52
Flow 1: {1 12 0} {12 2 0} {2 54 0} 
Flow 2: {1 49 0} {49 52 0} {52 3 0} {3 55 0} 
Flow 3: {1 4 0} {4 56 0} 
Flow 4: {49 8 0} {8 5 0} {5 57 0} 
Flow 5: {8 6 0} {6 58 0} 
Flow 6: {12 7 0} {7 59 0} 
Flow 7: {8 60 0} 
Flow 8: {8 9 0} {9 61 0} 
Flow 9: {8 10 0} {10 62 0} 
Flow 10: {1 50 0} {50 11 0} {11 63 0} 
Flow 11: {12 64 0} 
Flow 12: {10 13 0} {13 65 0} 
Flow 13: {8 14 0} {14 66 0} 
Flow 14: {49 15 0} {15 67 0} 
Flow 15: {49 16 0} {16 68 0} 
Flow 16: {49 48 0} {48 17 0} {17 69 0} 
Flow 17: {1 18 0} {18 70 0} 
Flow 18: {12 37 0} {37 19 0} {19 71 0} 
Flow 19: {8 20 0} {20 72 0} 
Flow 20: {8 21 0} {21 73 0} 
Flow 21: {8 22 0} {22 74 0} 
Flow 22: {49 23 0} {23 75 0} 
Flow 23: {8 24 0} {24 76 0} 
Flow 24: {50 25 0} {25 77 0} 
Flow 25: {4 26 0} {26 78 0} 
Flow 26: {6 27 0} {27 79 0} 
Flow 27: {8 28 0} {28 80 0} 
Flow 28: {52 29 0} {29 81 0} 
Flow 29: {49 30 0} {30 82 0} 
Flow 30: {21 31 0} {31 83 0} 
Flow 31: {52 32 0} {32 84 0} 
Flow 32: {8 33 0} {33 85 0} 
Flow 33: {49 34 0} {34 86 0} 
Flow 34: {52 35 0} {35 87 0} 
Flow 35: {49 36 0} {36 88 0} 
Flow 36: {37 89 0} 
Flow 37: {10 38 0} {38 90 0} 
Flow 38: {4 39 0} {39 91 0} 
Flow 39: {49 40 0} {40 92 0} 
Flow 40: {49 41 0} {41 93 0} 
Flow 41: {49 42 0} {42 94 0} 
Flow 42: {49 43 0} {43 95 0} 
Flow 43: {49 44 0} {44 96 0} 
Flow 44: {16 45 0} {45 97 0} 
Flow 45: {49 46 0} {46 98 0} 
Flow 46: {48 47 0} {47 99 0} 
Flow 47: {48 100 0} 
Flow 48: {49 101 0} 
Flow 49: {50 102 0} 
Flow 50: {49 51 0} {51 103 0} 
Flow 51: {52 104 0} 
Flow 52: {12 1 0} {1 53 0} 
Flow 52: {2 12 0} Flow 55: {7 8 0} Flow 56: {7 6 0} Flow 60: {7 10 0} Flow 103: {3 52 0} {52 49 0} {49 1 0} Flow 105: {49 4 0} Flow 106: {3 21 0} {21 8 0} Flow 108: {8 7 0} Flow 112: {49 50 0} Flow 117: {52 46 0} {46 16 0} Flow 120: {10 37 0} Flow 154: {4 1 0} Flow 156: {4 49 0} Flow 205: {5 8 0} Flow 206: {7 12 0} Flow 207: {21 3 0} Flow 208: {8 49 0} Flow 256: {6 7 0} Flow 258: {6 8 0} Flow 409: {9 8 0} Flow 460: {10 7 0} Flow 462: {10 8 0} Flow 511: {11 50 0} {50 1 0} Flow 513: {50 49 0} Flow 526: {50 48 0} Flow 554: {17 45 0} Flow 613: {13 10 0} Flow 664: {14 8 0} Flow 715: {15 49 0} Flow 766: {16 49 0} Flow 781: {45 17 0} Flow 810: {16 46 0} Flow 817: {17 48 0} {48 49 0} Flow 827: {48 50 0} Flow 832: {45 16 0} Flow 862: {17 47 0} Flow 868: {18 1 0} Flow 919: {19 37 0} {37 12 0} Flow 921: {37 10 0} Flow 970: {20 8 0} Flow 1072: {22 8 0} Flow 1123: {23 49 0} Flow 1174: {24 8 0} Flow 1225: {25 50 0} Flow 1276: {26 4 0} Flow 1327: {27 6 0} Flow 1378: {28 8 0} Flow 1429: {29 52 0} Flow 1480: {30 49 0} Flow 1531: {31 21 0} Flow 1582: {32 52 0} Flow 1633: {33 8 0} Flow 1684: {34 49 0} Flow 1735: {35 52 0} Flow 1786: {36 49 0} Flow 1888: {38 10 0} Flow 1939: {39 4 0} Flow 1990: {40 49 0} Flow 2041: {41 49 0} Flow 2092: {42 49 0} Flow 2143: {43 49 0} Flow 2194: {44 49 0} Flow 2296: {46 49 0} Flow 2298: {46 52 0} Flow 2347: {47 48 0} Flow 2362: {47 17 0} Flow 2551: {51 49 0} Time taken running everything: 0 seconds
