networks/zoo_104_2652/zoo_104_2652-lower.sol
<?xml version = "1.0" encoding="UTF-8" standalone="yes"?>
<CPLEXSolution version="1.2">
 <header
   problemName="networks/zoo_104_2652/zoo_104_2652-lower.lp"
   solutionName="incumbent"
   solutionIndex="-1"
   objectiveValue="52"
   solutionTypeValue="3"
   solutionTypeString="primal"
   solutionStatusValue="101"
   solutionStatusString="integer optimal solution"
   solutionMethodString="mip"
   primalFeasible="1"
   dualFeasible="1"
   MIPNodes="0"
   MIPIterations="0"
   writeLevel="3"/>
 <quality
   epInt="1.0000000000000001e-05"
   epRHS="9.9999999999999995e-07"
   maxIntInfeas="0"
   maxPrimalInfeas="0"
   maxX="1"
   maxSlack="1"/>
 <variables>
  <variable name="Y(1,2)" index="1" value="1"/>
  <variable name="Y(2,3)" index="106" value="1"/>
  <variable name="Y(3,4)" index="211" value="1"/>
  <variable name="Y(4,5)" index="316" value="1"/>
  <variable name="Y(5,6)" index="421" value="1"/>
  <variable name="Y(6,7)" index="526" value="1"/>
  <variable name="Y(7,8)" index="631" value="1"/>
  <variable name="Y(8,9)" index="736" value="1"/>
  <variable name="Y(9,10)" index="841" value="1"/>
  <variable name="Y(10,11)" index="946" value="1"/>
  <variable name="Y(11,12)" index="1051" value="1"/>
  <variable name="Y(12,13)" index="1156" value="1"/>
  <variable name="Y(13,14)" index="1261" value="1"/>
  <variable name="Y(14,15)" index="1366" value="1"/>
  <variable name="Y(15,16)" index="1471" value="1"/>
  <variable name="Y(16,17)" index="1576" value="1"/>
  <variable name="Y(17,18)" index="1681" value="1"/>
  <variable name="Y(18,19)" index="1786" value="1"/>
  <variable name="Y(19,20)" index="1891" value="1"/>
  <variable name="Y(20,21)" index="1996" value="1"/>
  <variable name="Y(21,22)" index="2101" value="1"/>
  <variable name="Y(22,23)" index="2206" value="1"/>
  <variable name="Y(23,24)" index="2311" value="1"/>
  <variable name="Y(24,25)" index="2416" value="1"/>
  <variable name="Y(25,26)" index="2521" value="1"/>
  <variable name="Y(26,27)" index="2626" value="1"/>
  <variable name="Y(27,28)" index="2731" value="1"/>
  <variable name="Y(28,29)" index="2836" value="1"/>
  <variable name="Y(29,30)" index="2941" value="1"/>
  <variable name="Y(30,31)" index="3046" value="1"/>
  <variable name="Y(31,32)" index="3151" value="1"/>
  <variable name="Y(32,33)" index="3256" value="1"/>
  <variable name="Y(33,34)" index="3361" value="1"/>
  <variable name="Y(34,35)" index="3466" value="1"/>
  <variable name="Y(35,36)" index="3571" value="1"/>
  <variable name="Y(36,37)" index="3676" value="1"/>
  <variable name="Y(37,38)" index="3781" value="1"/>
  <variable name="Y(38,39)" index="3886" value="1"/>
  <variable name="Y(39,40)" index="3991" value="1"/>
  <variable name="Y(40,41)" index="4096" value="1"/>
  <variable name="Y(41,42)" index="4201" value="1"/>
  <variable name="Y(42,43)" index="4306" value="1"/>
  <variable name="Y(43,44)" index="4411" value="1"/>
  <variable name="Y(44,45)" index="4516" value="1"/>
  <variable name="Y(45,46)" index="4621" value="1"/>
  <variable name="Y(46,47)" index="4726" value="1"/>
  <variable name="Y(47,48)" index="4831" value="1"/>
  <variable name="Y(48,49)" index="4936" value="1"/>
  <variable name="Y(49,50)" index="5041" value="1"/>
  <variable name="Y(50,51)" index="5146" value="1"/>
  <variable name="Y(51,52)" index="5251" value="1"/>
  <variable name="Y(52,1)" index="5304" value="1"/>
  <variable name="X(1,4,3)" index="275810" value="1"/>
  <variable name="X(1,12,1)" index="278460" value="1"/>
  <variable name="X(1,18,17)" index="281128" value="1"/>
  <variable name="X(1,49,2)" index="283765" value="1"/>
  <variable name="X(1,50,10)" index="286425" value="1"/>
  <variable name="X(1,53,52)" index="289119" value="1"/>
  <variable name="X(2,12,52)" index="291771" value="1"/>
  <variable name="X(2,54,1)" index="294372" value="1"/>
  <variable name="X(3,21,106)" index="297129" value="1"/>
  <variable name="X(3,52,103)" index="299778" value="1"/>
  <variable name="X(3,55,2)" index="302329" value="1"/>
  <variable name="X(4,1,154)" index="305133" value="1"/>
  <variable name="X(4,26,25)" index="307656" value="1"/>
  <variable name="X(4,39,38)" index="310321" value="1"/>
  <variable name="X(4,49,156)" index="313091" value="1"/>
  <variable name="X(4,56,3)" index="315590" value="1"/>
  <variable name="X(5,8,205)" index="318444" value="1"/>
  <variable name="X(5,57,4)" index="320895" value="1"/>
  <variable name="X(6,7,256)" index="323799" value="1"/>
  <variable name="X(6,8,258)" index="326453" value="1"/>
  <variable name="X(6,27,26)" index="328873" value="1"/>
  <variable name="X(6,58,5)" index="331504" value="1"/>
  <variable name="X(7,6,56)" index="334207" value="1"/>
  <variable name="X(7,8,55)" index="336858" value="1"/>
  <variable name="X(7,10,60)" index="339515" value="1"/>
  <variable name="X(7,12,206)" index="342313" value="1"/>
  <variable name="X(7,59,6)" index="344765" value="1"/>
  <variable name="X(8,5,4)" index="347415" value="1"/>
  <variable name="X(8,6,5)" index="350068" value="1"/>
  <variable name="X(8,7,108)" index="352823" value="1"/>
  <variable name="X(8,9,8)" index="355375" value="1"/>
  <variable name="X(8,10,9)" index="358028" value="1"/>
  <variable name="X(8,14,13)" index="360684" value="1"/>
  <variable name="X(8,20,19)" index="363342" value="1"/>
  <variable name="X(8,21,20)" index="365995" value="1"/>
  <variable name="X(8,22,21)" index="368648" value="1"/>
  <variable name="X(8,24,23)" index="371302" value="1"/>
  <variable name="X(8,28,27)" index="373958" value="1"/>
  <variable name="X(8,33,32)" index="376615" value="1"/>
  <variable name="X(8,49,208)" index="379443" value="1"/>
  <variable name="X(8,60,7)" index="381894" value="1"/>
  <variable name="X(9,8,409)" index="384948" value="1"/>
  <variable name="X(9,61,8)" index="387199" value="1"/>
  <variable name="X(10,7,460)" index="390303" value="1"/>
  <variable name="X(10,8,462)" index="392957" value="1"/>
  <variable name="X(10,13,12)" index="395159" value="1"/>
  <variable name="X(10,37,120)" index="397919" value="1"/>
  <variable name="X(10,38,37)" index="400488" value="1"/>
  <variable name="X(10,62,9)" index="403112" value="1"/>
  <variable name="X(11,50,511)" index="406266" value="1"/>
  <variable name="X(11,63,10)" index="408417" value="1"/>
  <variable name="X(12,1,52)" index="411111" value="1"/>
  <variable name="X(12,2,1)" index="413712" value="1"/>
  <variable name="X(12,7,6)" index="416369" value="1"/>
  <variable name="X(12,37,18)" index="419033" value="1"/>
  <variable name="X(12,64,11)" index="421678" value="1"/>
  <variable name="X(13,10,613)" index="424932" value="1"/>
  <variable name="X(13,65,12)" index="426983" value="1"/>
  <variable name="X(14,8,664)" index="430287" value="1"/>
  <variable name="X(14,66,13)" index="432288" value="1"/>
  <variable name="X(15,49,715)" index="435642" value="1"/>
  <variable name="X(15,67,14)" index="437593" value="1"/>
  <variable name="X(16,45,44)" index="440275" value="1"/>
  <variable name="X(16,46,810)" index="443693" value="1"/>
  <variable name="X(16,49,766)" index="446301" value="1"/>
  <variable name="X(16,68,15)" index="448202" value="1"/>
  <variable name="X(17,45,554)" index="451393" value="1"/>
  <variable name="X(17,47,862)" index="454353" value="1"/>
  <variable name="X(17,48,817)" index="456960" value="1"/>
  <variable name="X(17,69,16)" index="458811" value="1"/>
  <variable name="X(18,1,868)" index="462315" value="1"/>
  <variable name="X(18,70,17)" index="464116" value="1"/>
  <variable name="X(19,37,919)" index="467670" value="1"/>
  <variable name="X(19,71,18)" index="469421" value="1"/>
  <variable name="X(20,8,970)" index="473025" value="1"/>
  <variable name="X(20,72,19)" index="474726" value="1"/>
  <variable name="X(21,3,207)" index="477566" value="1"/>
  <variable name="X(21,8,106)" index="480117" value="1"/>
  <variable name="X(21,31,30)" index="482693" value="1"/>
  <variable name="X(21,73,20)" index="485335" value="1"/>
  <variable name="X(22,8,1072)" index="489039" value="1"/>
  <variable name="X(22,74,21)" index="490640" value="1"/>
  <variable name="X(23,49,1123)" index="494394" value="1"/>
  <variable name="X(23,75,22)" index="495945" value="1"/>
  <variable name="X(24,8,1174)" index="499749" value="1"/>
  <variable name="X(24,76,23)" index="501250" value="1"/>
  <variable name="X(25,50,1225)" index="505104" value="1"/>
  <variable name="X(25,77,24)" index="506555" value="1"/>
  <variable name="X(26,4,1276)" index="510459" value="1"/>
  <variable name="X(26,78,25)" index="511860" value="1"/>
  <variable name="X(27,6,1327)" index="515814" value="1"/>
  <variable name="X(27,79,26)" index="517165" value="1"/>
  <variable name="X(28,8,1378)" index="521169" value="1"/>
  <variable name="X(28,80,27)" index="522470" value="1"/>
  <variable name="X(29,52,1429)" index="526524" value="1"/>
  <variable name="X(29,81,28)" index="527775" value="1"/>
  <variable name="X(30,49,1480)" index="531879" value="1"/>
  <variable name="X(30,82,29)" index="533080" value="1"/>
  <variable name="X(31,21,1531)" index="537234" value="1"/>
  <variable name="X(31,83,30)" index="538385" value="1"/>
  <variable name="X(32,52,1582)" index="542589" value="1"/>
  <variable name="X(32,84,31)" index="543690" value="1"/>
  <variable name="X(33,8,1633)" index="547944" value="1"/>
  <variable name="X(33,85,32)" index="548995" value="1"/>
  <variable name="X(34,49,1684)" index="553299" value="1"/>
  <variable name="X(34,86,33)" index="554300" value="1"/>
  <variable name="X(35,52,1735)" index="558654" value="1"/>
  <variable name="X(35,87,34)" index="559605" value="1"/>
  <variable name="X(36,49,1786)" index="564009" value="1"/>
  <variable name="X(36,88,35)" index="564910" value="1"/>
  <variable name="X(37,10,921)" index="568448" value="1"/>
  <variable name="X(37,12,919)" index="571098" value="1"/>
  <variable name="X(37,19,18)" index="572849" value="1"/>
  <variable name="X(37,89,36)" index="575519" value="1"/>
  <variable name="X(38,10,1888)" index="580023" value="1"/>
  <variable name="X(38,90,37)" index="580824" value="1"/>
  <variable name="X(39,4,1939)" index="585378" value="1"/>
  <variable name="X(39,91,38)" index="586129" value="1"/>
  <variable name="X(40,49,1990)" index="590733" value="1"/>
  <variable name="X(40,92,39)" index="591434" value="1"/>
  <variable name="X(41,49,2041)" index="596088" value="1"/>
  <variable name="X(41,93,40)" index="596739" value="1"/>
  <variable name="X(42,49,2092)" index="601443" value="1"/>
  <variable name="X(42,94,41)" index="602044" value="1"/>
  <variable name="X(43,49,2143)" index="606798" value="1"/>
  <variable name="X(43,95,42)" index="607349" value="1"/>
  <variable name="X(44,49,2194)" index="612153" value="1"/>
  <variable name="X(44,96,43)" index="612654" value="1"/>
  <variable name="X(45,16,832)" index="616095" value="1"/>
  <variable name="X(45,17,781)" index="618696" value="1"/>
  <variable name="X(45,97,44)" index="620611" value="1"/>
  <variable name="X(46,16,117)" index="623336" value="1"/>
  <variable name="X(46,49,2296)" index="628167" value="1"/>
  <variable name="X(46,52,2298)" index="630821" value="1"/>
  <variable name="X(46,98,45)" index="631220" value="1"/>
  <variable name="X(47,17,2362)" index="636189" value="1"/>
  <variable name="X(47,48,2347)" index="638826" value="1"/>
  <variable name="X(47,99,46)" index="639177" value="1"/>
  <variable name="X(48,17,16)" index="641799" value="1"/>
  <variable name="X(48,47,46)" index="644481" value="1"/>
  <variable name="X(48,49,817)" index="647904" value="1"/>
  <variable name="X(48,50,827)" index="650566" value="1"/>
  <variable name="X(48,100,47)" index="652438" value="1"/>
  <variable name="X(49,1,103)" index="655146" value="1"/>
  <variable name="X(49,4,105)" index="657800" value="1"/>
  <variable name="X(49,8,4)" index="660351" value="1"/>
  <variable name="X(49,15,14)" index="663013" value="1"/>
  <variable name="X(49,16,15)" index="665666" value="1"/>
  <variable name="X(49,23,22)" index="668325" value="1"/>
  <variable name="X(49,30,29)" index="670984" value="1"/>
  <variable name="X(49,34,33)" index="673640" value="1"/>
  <variable name="X(49,36,35)" index="676294" value="1"/>
  <variable name="X(49,40,39)" index="678950" value="1"/>
  <variable name="X(49,41,40)" index="681603" value="1"/>
  <variable name="X(49,42,41)" index="684256" value="1"/>
  <variable name="X(49,43,42)" index="686909" value="1"/>
  <variable name="X(49,44,43)" index="689562" value="1"/>
  <variable name="X(49,46,45)" index="692216" value="1"/>
  <variable name="X(49,48,16)" index="694839" value="1"/>
  <variable name="X(49,50,112)" index="697587" value="1"/>
  <variable name="X(49,51,50)" index="700177" value="1"/>
  <variable name="X(49,52,2)" index="702781" value="1"/>
  <variable name="X(49,101,48)" index="705479" value="1"/>
  <variable name="X(50,1,511)" index="708594" value="1"/>
  <variable name="X(50,11,10)" index="710745" value="1"/>
  <variable name="X(50,25,24)" index="713411" value="1"/>
  <variable name="X(50,48,526)" index="716565" value="1"/>
  <variable name="X(50,49,513)" index="719204" value="1"/>
  <variable name="X(50,102,49)" index="721392" value="1"/>
  <variable name="X(51,49,2551)" index="726546" value="1"/>
  <variable name="X(51,103,50)" index="726697" value="1"/>
  <variable name="X(52,3,2)" index="729301" value="1"/>
  <variable name="X(52,29,28)" index="731979" value="1"/>
  <variable name="X(52,32,31)" index="734634" value="1"/>
  <variable name="X(52,35,34)" index="737289" value="1"/>
  <variable name="X(52,46,117)" index="740024" value="1"/>
  <variable name="X(52,49,103)" index="742662" value="1"/>
  <variable name="X(52,104,51)" index="745262" value="1"/>
 </variables>
</CPLEXSolution>
